nNurses = 197;
nHours = 32;
minHours = 3;
maxHours = 15;
maxConsec = 6;
maxPresence = 21;
demand = [37, 41, 43, 42, 37, 33, 29, 26, 27, 22, 18, 21, 22, 17, 22, 18, 23, 23, 20, 17, 16, 19, 23, 23, 25, 21, 25, 28, 31, 34, 36, 34];
